N = 336;
M = 810;
Edge_Start = [1, 2, 3, 3, 4, 5, 5, 6, 7, 8, 9, 9, 10, 11, 12, 13, 14, 15, 15, 16, 17, 18, 19, 19, 20, 21, 21, 23, 23, 24, 25, 26, 27, 27, 28, 29, 29, 31, 31, 32, 33, 33, 34, 35, 35, 37, 38, 39, 39, 40, 43, 43, 44, 46, 47, 47, 48, 49, 49, 50, 52, 52, 53, 54, 55, 56, 56, 57, 58, 58, 59, 60, 60, 62, 63, 64, 65, 66, 66, 68, 68, 69, 70, 70, 71, 72, 72, 73, 74, 74, 76, 76, 79, 81, 82, 83, 83, 85, 85, 86, 87, 88, 89, 89, 90, 91, 92, 93, 94, 95, 95, 96, 97, 97, 98, 99, 99, 100, 101, 101, 102, 103, 104, 104, 105, 106, 106, 107, 108, 108, 109, 110, 110, 111, 112, 112, 114, 114, 115, 116, 116, 117, 118, 118, 119, 120, 122, 123, 124, 124, 125, 126, 126, 127, 128, 130, 131, 132, 133, 133, 134, 135, 135, 136, 137, 137, 138, 139, 139, 140, 141, 141, 142, 143, 143, 144, 145, 146, 147, 147, 149, 149, 150, 151, 151, 152, 153, 153, 154, 155, 156, 156, 157, 158, 158, 159, 160, 161, 162, 162, 163, 164, 164, 165, 166, 166, 167, 168, 168, 169, 170, 171, 172, 172, 173, 174, 175, 176, 176, 177, 179, 180, 180, 182, 183, 183, 184, 185, 185, 186, 187, 187, 188, 189, 189, 190, 191, 191, 192, 193, 193, 195, 196, 197, 197, 198, 199, 200, 201, 201, 202, 203, 204, 205, 205, 206, 207, 208, 209, 210, 212, 212, 213, 214, 215, 216, 216, 217, 218, 218, 220, 221, 222, 222, 224, 224, 225, 226, 226, 227, 228, 229, 230, 230, 232, 234, 235, 235, 236, 237, 237, 238, 239, 239, 241, 241, 242, 243, 243, 244, 245, 245, 246, 247, 247, 249, 249, 250, 251, 252, 253, 253, 254, 255, 255, 256, 257, 258, 259, 260, 260, 261, 262, 262, 263, 264, 264, 265, 266, 268, 268, 269, 270, 271, 272, 272, 273, 274, 274, 275, 276, 276, 277, 278, 278, 279, 280, 281, 282, 282, 283, 284, 286, 287, 287, 288, 289, 290, 291, 291, 293, 293, 294, 295, 295, 297, 297, 299, 299, 300, 301, 301, 302, 303, 303, 304, 305, 306, 307, 307, 308, 309, 309, 310, 311, 312, 313, 314, 315, 316, 317, 319, 320, 321, 322, 325, 326, 327, 329, 330, 331, 332, 333, 334, 335, 2, 3, 4, 28, 5, 6, 30, 7, 8, 9, 10, 34, 11, 36, 13, 38, 15, 16, 40, 17, 42, 19, 20, 44, 21, 22, 46, 24, 48, 25, 50, 27, 28, 53, 29, 30, 55, 32, 57, 33, 34, 59, 35, 36, 61, 38, 39, 40, 65, 41, 44, 69, 45, 47, 48, 73, 49, 50, 75, 51, 53, 78, 54, 80, 56, 57, 82, 58, 59, 84, 60, 61, 86, 88, 64, 65, 66, 67, 92, 69, 94, 70, 71, 96, 72, 73, 98, 74, 75, 100, 77, 102, 105, 82, 83, 84, 109, 86, 111, 87, 88, 89, 90, 115, 91, 117, 93, 94, 95, 96, 121, 97, 98, 123, 99, 100, 125, 101, 102, 127, 103, 129, 105, 130, 106, 107, 132, 108, 109, 134, 110, 111, 136, 112, 113, 138, 115, 140, 116, 117, 142, 118, 119, 144, 120, 121, 123, 124, 125, 150, 126, 127, 152, 128, 154, 131, 132, 133, 134, 159, 135, 136, 161, 137, 138, 163, 139, 140, 165, 141, 142, 167, 143, 144, 169, 145, 171, 147, 148, 173, 150, 175, 151, 152, 177, 153, 154, 179, 155, 181, 157, 182, 158, 159, 184, 160, 186, 162, 163, 188, 164, 165, 190, 166, 167, 192, 168, 169, 194, 170, 196, 172, 173, 198, 174, 175, 176, 177, 202, 178, 180, 181, 206, 183, 184, 209, 185, 186, 211, 187, 188, 213, 189, 190, 215, 191, 192, 217, 193, 194, 219, 221, 197, 198, 223, 199, 225, 201, 202, 227, 203, 204, 205, 206, 231, 207, 233, 209, 210, 236, 213, 238, 214, 215, 216, 217, 242, 218, 219, 244, 246, 222, 223, 248, 225, 250, 226, 227, 252, 228, 229, 230, 231, 256, 258, 235, 236, 261, 237, 238, 263, 239, 240, 265, 242, 267, 243, 244, 269, 245, 246, 271, 247, 248, 273, 250, 275, 251, 277, 253, 254, 279, 255, 256, 281, 257, 258, 259, 285, 261, 286, 262, 263, 288, 264, 265, 290, 266, 267, 269, 294, 270, 271, 272, 273, 298, 274, 275, 300, 276, 277, 302, 278, 279, 304, 280, 281, 282, 283, 308, 284, 310, 287, 288, 312, 289, 290, 291, 292, 316, 294, 318, 295, 296, 320, 298, 322, 300, 324, 301, 302, 326, 303, 304, 328, 305, 306, 307, 308, 332, 309, 310, 334, 311, 336, 313, 314, 315, 316, 317, 318, 320, 321, 322, 323, 326, 327, 328, 330, 331, 332, 333, 334, 335, 336];
Edge_End = [2, 3, 4, 28, 5, 6, 30, 7, 8, 9, 10, 34, 11, 36, 13, 38, 15, 16, 40, 17, 42, 19, 20, 44, 21, 22, 46, 24, 48, 25, 50, 27, 28, 53, 29, 30, 55, 32, 57, 33, 34, 59, 35, 36, 61, 38, 39, 40, 65, 41, 44, 69, 45, 47, 48, 73, 49, 50, 75, 51, 53, 78, 54, 80, 56, 57, 82, 58, 59, 84, 60, 61, 86, 88, 64, 65, 66, 67, 92, 69, 94, 70, 71, 96, 72, 73, 98, 74, 75, 100, 77, 102, 105, 82, 83, 84, 109, 86, 111, 87, 88, 89, 90, 115, 91, 117, 93, 94, 95, 96, 121, 97, 98, 123, 99, 100, 125, 101, 102, 127, 103, 129, 105, 130, 106, 107, 132, 108, 109, 134, 110, 111, 136, 112, 113, 138, 115, 140, 116, 117, 142, 118, 119, 144, 120, 121, 123, 124, 125, 150, 126, 127, 152, 128, 154, 131, 132, 133, 134, 159, 135, 136, 161, 137, 138, 163, 139, 140, 165, 141, 142, 167, 143, 144, 169, 145, 171, 147, 148, 173, 150, 175, 151, 152, 177, 153, 154, 179, 155, 181, 157, 182, 158, 159, 184, 160, 186, 162, 163, 188, 164, 165, 190, 166, 167, 192, 168, 169, 194, 170, 196, 172, 173, 198, 174, 175, 176, 177, 202, 178, 180, 181, 206, 183, 184, 209, 185, 186, 211, 187, 188, 213, 189, 190, 215, 191, 192, 217, 193, 194, 219, 221, 197, 198, 223, 199, 225, 201, 202, 227, 203, 204, 205, 206, 231, 207, 233, 209, 210, 236, 213, 238, 214, 215, 216, 217, 242, 218, 219, 244, 246, 222, 223, 248, 225, 250, 226, 227, 252, 228, 229, 230, 231, 256, 258, 235, 236, 261, 237, 238, 263, 239, 240, 265, 242, 267, 243, 244, 269, 245, 246, 271, 247, 248, 273, 250, 275, 251, 277, 253, 254, 279, 255, 256, 281, 257, 258, 259, 285, 261, 286, 262, 263, 288, 264, 265, 290, 266, 267, 269, 294, 270, 271, 272, 273, 298, 274, 275, 300, 276, 277, 302, 278, 279, 304, 280, 281, 282, 283, 308, 284, 310, 287, 288, 312, 289, 290, 291, 292, 316, 294, 318, 295, 296, 320, 298, 322, 300, 324, 301, 302, 326, 303, 304, 328, 305, 306, 307, 308, 332, 309, 310, 334, 311, 336, 313, 314, 315, 316, 317, 318, 320, 321, 322, 323, 326, 327, 328, 330, 331, 332, 333, 334, 335, 336, 1, 2, 3, 3, 4, 5, 5, 6, 7, 8, 9, 9, 10, 11, 12, 13, 14, 15, 15, 16, 17, 18, 19, 19, 20, 21, 21, 23, 23, 24, 25, 26, 27, 27, 28, 29, 29, 31, 31, 32, 33, 33, 34, 35, 35, 37, 38, 39, 39, 40, 43, 43, 44, 46, 47, 47, 48, 49, 49, 50, 52, 52, 53, 54, 55, 56, 56, 57, 58, 58, 59, 60, 60, 62, 63, 64, 65, 66, 66, 68, 68, 69, 70, 70, 71, 72, 72, 73, 74, 74, 76, 76, 79, 81, 82, 83, 83, 85, 85, 86, 87, 88, 89, 89, 90, 91, 92, 93, 94, 95, 95, 96, 97, 97, 98, 99, 99, 100, 101, 101, 102, 103, 104, 104, 105, 106, 106, 107, 108, 108, 109, 110, 110, 111, 112, 112, 114, 114, 115, 116, 116, 117, 118, 118, 119, 120, 122, 123, 124, 124, 125, 126, 126, 127, 128, 130, 131, 132, 133, 133, 134, 135, 135, 136, 137, 137, 138, 139, 139, 140, 141, 141, 142, 143, 143, 144, 145, 146, 147, 147, 149, 149, 150, 151, 151, 152, 153, 153, 154, 155, 156, 156, 157, 158, 158, 159, 160, 161, 162, 162, 163, 164, 164, 165, 166, 166, 167, 168, 168, 169, 170, 171, 172, 172, 173, 174, 175, 176, 176, 177, 179, 180, 180, 182, 183, 183, 184, 185, 185, 186, 187, 187, 188, 189, 189, 190, 191, 191, 192, 193, 193, 195, 196, 197, 197, 198, 199, 200, 201, 201, 202, 203, 204, 205, 205, 206, 207, 208, 209, 210, 212, 212, 213, 214, 215, 216, 216, 217, 218, 218, 220, 221, 222, 222, 224, 224, 225, 226, 226, 227, 228, 229, 230, 230, 232, 234, 235, 235, 236, 237, 237, 238, 239, 239, 241, 241, 242, 243, 243, 244, 245, 245, 246, 247, 247, 249, 249, 250, 251, 252, 253, 253, 254, 255, 255, 256, 257, 258, 259, 260, 260, 261, 262, 262, 263, 264, 264, 265, 266, 268, 268, 269, 270, 271, 272, 272, 273, 274, 274, 275, 276, 276, 277, 278, 278, 279, 280, 281, 282, 282, 283, 284, 286, 287, 287, 288, 289, 290, 291, 291, 293, 293, 294, 295, 295, 297, 297, 299, 299, 300, 301, 301, 302, 303, 303, 304, 305, 306, 307, 307, 308, 309, 309, 310, 311, 312, 313, 314, 315, 316, 317, 319, 320, 321, 322, 325, 326, 327, 329, 330, 331, 332, 333, 334, 335];
L = [14, 4, 19, 13, 9, 5, 16, 2, 6, 14, 18, 19, 10, 4, 13, 10, 2, 1, 4, 9, 6, 17, 11, 2, 1, 3, 3, 13, 8, 17, 12, 10, 8, 1, 18, 4, 2, 11, 9, 8, 7, 8, 3, 17, 9, 13, 11, 14, 18, 3, 8, 8, 15, 16, 15, 12, 9, 12, 18, 2, 3, 18, 3, 12, 10, 1, 16, 18, 14, 1, 8, 8, 17, 3, 7, 13, 12, 8, 5, 16, 1, 5, 6, 8, 11, 10, 3, 14, 11, 17, 3, 15, 16, 16, 14, 2, 4, 4, 17, 7, 2, 18, 6, 9, 6, 4, 1, 18, 19, 8, 2, 3, 1, 19, 14, 5, 2, 16, 17, 1, 11, 13, 12, 9, 6, 3, 2, 8, 5, 6, 19, 1, 8, 4, 14, 7, 10, 7, 8, 1, 8, 2, 2, 3, 15, 9, 14, 15, 15, 18, 2, 11, 18, 1, 12, 1, 7, 4, 10, 12, 5, 12, 13, 1, 9, 7, 13, 1, 3, 14, 3, 3, 8, 10, 16, 1, 15, 19, 12, 16, 18, 14, 8, 13, 13, 7, 17, 1, 18, 5, 5, 4, 8, 7, 1, 1, 14, 11, 1, 8, 18, 1, 18, 15, 13, 10, 2, 2, 2, 9, 1, 10, 3, 5, 15, 5, 15, 1, 10, 12, 18, 13, 10, 11, 3, 17, 15, 13, 4, 1, 17, 18, 13, 2, 9, 14, 7, 4, 17, 10, 13, 10, 1, 12, 8, 2, 14, 6, 1, 14, 15, 18, 11, 14, 4, 11, 2, 14, 12, 10, 9, 17, 8, 13, 14, 1, 5, 17, 2, 10, 8, 17, 1, 7, 17, 14, 2, 6, 12, 17, 16, 6, 9, 18, 6, 6, 6, 10, 6, 8, 8, 9, 2, 7, 2, 8, 1, 4, 5, 15, 12, 18, 9, 5, 15, 5, 9, 3, 4, 6, 17, 17, 2, 8, 14, 8, 12, 17, 18, 13, 16, 3, 18, 19, 3, 3, 11, 1, 14, 17, 16, 2, 7, 2, 11, 17, 16, 15, 4, 7, 14, 5, 15, 13, 18, 12, 15, 18, 4, 3, 14, 10, 16, 5, 4, 9, 5, 5, 12, 10, 1, 10, 1, 8, 5, 6, 14, 7, 17, 2, 16, 5, 4, 6, 13, 17, 12, 3, 5, 7, 9, 9, 7, 8, 18, 13, 18, 16, 4, 16, 5, 9, 17, 1, 1, 16, 2, 6, 5, 1, 17, 11, 10, 3, 8, 14, 4, 19, 13, 9, 5, 16, 2, 6, 14, 18, 19, 10, 4, 13, 10, 2, 1, 4, 9, 6, 17, 11, 2, 1, 3, 3, 13, 8, 17, 12, 10, 8, 1, 18, 4, 2, 11, 9, 8, 7, 8, 3, 17, 9, 13, 11, 14, 18, 3, 8, 8, 15, 16, 15, 12, 9, 12, 18, 2, 3, 18, 3, 12, 10, 1, 16, 18, 14, 1, 8, 8, 17, 3, 7, 13, 12, 8, 5, 16, 1, 5, 6, 8, 11, 10, 3, 14, 11, 17, 3, 15, 16, 16, 14, 2, 4, 4, 17, 7, 2, 18, 6, 9, 6, 4, 1, 18, 19, 8, 2, 3, 1, 19, 14, 5, 2, 16, 17, 1, 11, 13, 12, 9, 6, 3, 2, 8, 5, 6, 19, 1, 8, 4, 14, 7, 10, 7, 8, 1, 8, 2, 2, 3, 15, 9, 14, 15, 15, 18, 2, 11, 18, 1, 12, 1, 7, 4, 10, 12, 5, 12, 13, 1, 9, 7, 13, 1, 3, 14, 3, 3, 8, 10, 16, 1, 15, 19, 12, 16, 18, 14, 8, 13, 13, 7, 17, 1, 18, 5, 5, 4, 8, 7, 1, 1, 14, 11, 1, 8, 18, 1, 18, 15, 13, 10, 2, 2, 2, 9, 1, 10, 3, 5, 15, 5, 15, 1, 10, 12, 18, 13, 10, 11, 3, 17, 15, 13, 4, 1, 17, 18, 13, 2, 9, 14, 7, 4, 17, 10, 13, 10, 1, 12, 8, 2, 14, 6, 1, 14, 15, 18, 11, 14, 4, 11, 2, 14, 12, 10, 9, 17, 8, 13, 14, 1, 5, 17, 2, 10, 8, 17, 1, 7, 17, 14, 2, 6, 12, 17, 16, 6, 9, 18, 6, 6, 6, 10, 6, 8, 8, 9, 2, 7, 2, 8, 1, 4, 5, 15, 12, 18, 9, 5, 15, 5, 9, 3, 4, 6, 17, 17, 2, 8, 14, 8, 12, 17, 18, 13, 16, 3, 18, 19, 3, 3, 11, 1, 14, 17, 16, 2, 7, 2, 11, 17, 16, 15, 4, 7, 14, 5, 15, 13, 18, 12, 15, 18, 4, 3, 14, 10, 16, 5, 4, 9, 5, 5, 12, 10, 1, 10, 1, 8, 5, 6, 14, 7, 17, 2, 16, 5, 4, 6, 13, 17, 12, 3, 5, 7, 9, 9, 7, 8, 18, 13, 18, 16, 4, 16, 5, 9, 17, 1, 1, 16, 2, 6, 5, 1, 17, 11, 10, 3, 8];
T = [9, 1, 19, 9, 7, 9, 12, 1, 1, 14, 18, 23, 11, 3, 16, 13, 8, 3, 10, 7, 1, 22, 10, 8, 1, 3, 4, 9, 7, 11, 17, 13, 9, 1, 17, 12, 5, 6, 6, 1, 7, 7, 1, 17, 4, 8, 7, 10, 19, 1, 12, 13, 10, 13, 15, 1, 9, 7, 22, 2, 1, 14, 3, 14, 17, 3, 12, 25, 15, 1, 4, 5, 11, 1, 4, 11, 9, 6, 1, 18, 3, 1, 5, 7, 4, 1, 11, 12, 6, 16, 3, 13, 19, 14, 10, 3, 1, 6, 17, 8, 9, 16, 1, 6, 12, 4, 1, 20, 21, 3, 1, 6, 1, 15, 11, 1, 4, 10, 17, 1, 7, 24, 15, 5, 6, 14, 1, 14, 5, 7, 25, 1, 1, 5, 7, 5, 15, 6, 6, 1, 9, 1, 2, 1, 17, 1, 8, 16, 14, 17, 2, 13, 5, 1, 11, 1, 14, 5, 12, 4, 1, 16, 20, 4, 12, 11, 2, 2, 1, 10, 1, 1, 13, 12, 15, 10, 17, 18, 8, 11, 17, 13, 11, 1, 5, 7, 19, 5, 20, 3, 6, 5, 14, 5, 1, 2, 8, 9, 1, 13, 14, 1, 9, 6, 12, 16, 4, 1, 2, 1, 1, 10, 9, 9, 17, 1, 12, 1, 9, 12, 17, 14, 9, 6, 6, 17, 15, 16, 6, 1, 25, 38, 13, 1, 9, 9, 14, 1, 25, 11, 18, 12, 3, 16, 8, 5, 19, 10, 2, 14, 16, 13, 16, 15, 1, 4, 1, 10, 12, 9, 6, 14, 7, 13, 16, 4, 3, 13, 1, 10, 1, 13, 1, 10, 16, 14, 2, 9, 3, 22, 16, 9, 8, 22, 1, 5, 10, 3, 12, 7, 10, 7, 1, 1, 1, 8, 1, 1, 5, 16, 2, 17, 12, 4, 17, 3, 6, 1, 10, 1, 9, 14, 1, 4, 8, 5, 2, 19, 16, 19, 7, 4, 17, 15, 11, 14, 7, 16, 16, 8, 15, 1, 6, 1, 11, 18, 15, 9, 1, 10, 13, 1, 16, 10, 18, 17, 13, 15, 8, 1, 19, 8, 13, 12, 5, 1, 6, 5, 1, 12, 1, 6, 8, 1, 6, 1, 13, 14, 14, 1, 12, 8, 2, 11, 19, 15, 6, 2, 4, 8, 3, 7, 15, 6, 25, 9, 14, 19, 1, 29, 1, 1, 22, 3, 1, 19, 1, 3, 5, 5, 11, 9, 11, 1, 11, 9, 1, 19, 9, 7, 9, 12, 1, 1, 14, 18, 23, 11, 3, 16, 13, 8, 3, 10, 7, 1, 22, 10, 8, 1, 3, 4, 9, 7, 11, 17, 13, 9, 1, 17, 12, 5, 6, 6, 1, 7, 7, 1, 17, 4, 8, 7, 10, 19, 1, 12, 13, 10, 13, 15, 1, 9, 7, 22, 2, 1, 14, 3, 14, 17, 3, 12, 25, 15, 1, 4, 5, 11, 1, 4, 11, 9, 6, 1, 18, 3, 1, 5, 7, 4, 1, 11, 12, 6, 16, 3, 13, 19, 14, 10, 3, 1, 6, 17, 8, 9, 16, 1, 6, 12, 4, 1, 20, 21, 3, 1, 6, 1, 15, 11, 1, 4, 10, 17, 1, 7, 24, 15, 5, 6, 14, 1, 14, 5, 7, 25, 1, 1, 5, 7, 5, 15, 6, 6, 1, 9, 1, 2, 1, 17, 1, 8, 16, 14, 17, 2, 13, 5, 1, 11, 1, 14, 5, 12, 4, 1, 16, 20, 4, 12, 11, 2, 2, 1, 10, 1, 1, 13, 12, 15, 10, 17, 18, 8, 11, 17, 13, 11, 1, 5, 7, 19, 5, 20, 3, 6, 5, 14, 5, 1, 2, 8, 9, 1, 13, 14, 1, 9, 6, 12, 16, 4, 1, 2, 1, 1, 10, 9, 9, 17, 1, 12, 1, 9, 12, 17, 14, 9, 6, 6, 17, 15, 16, 6, 1, 25, 38, 13, 1, 9, 9, 14, 1, 25, 11, 18, 12, 3, 16, 8, 5, 19, 10, 2, 14, 16, 13, 16, 15, 1, 4, 1, 10, 12, 9, 6, 14, 7, 13, 16, 4, 3, 13, 1, 10, 1, 13, 1, 10, 16, 14, 2, 9, 3, 22, 16, 9, 8, 22, 1, 5, 10, 3, 12, 7, 10, 7, 1, 1, 1, 8, 1, 1, 5, 16, 2, 17, 12, 4, 17, 3, 6, 1, 10, 1, 9, 14, 1, 4, 8, 5, 2, 19, 16, 19, 7, 4, 17, 15, 11, 14, 7, 16, 16, 8, 15, 1, 6, 1, 11, 18, 15, 9, 1, 10, 13, 1, 16, 10, 18, 17, 13, 15, 8, 1, 19, 8, 13, 12, 5, 1, 6, 5, 1, 12, 1, 6, 8, 1, 6, 1, 13, 14, 14, 1, 12, 8, 2, 11, 19, 15, 6, 2, 4, 8, 3, 7, 15, 6, 25, 9, 14, 19, 1, 29, 1, 1, 22, 3, 1, 19, 1, 3, 5, 5, 11, 9, 11, 1, 11];
Lower_Bound = [0, 9, 10, 29, 36, 45, 46, 47, 61, 79, 90, 271, 255, 263, 255, 258, 265, 230, 208, 203, 202, 205, 207, 216, 227, 41, 28, 19, 36, 48, 67, 73, 74, 81, 82, 93, 250, 242, 235, 245, 246, 266, 188, 200, 210, 198, 185, 200, 209, 216, 218, 30, 29, 32, 41, 58, 61, 84, 81, 85, 86, 114, 231, 227, 216, 207, 213, 188, 175, 174, 179, 183, 184, 196, 202, 226, 229, 44, 136, 46, 84, 70, 80, 83, 102, 96, 104, 113, 129, 130, 142, 206, 205, 185, 164, 167, 173, 174, 185, 186, 196, 213, 220, 130, 117, 111, 100, 86, 81, 106, 107, 112, 119, 127, 135, 141, 142, 143, 145, 162, 163, 196, 188, 203, 189, 191, 197, 198, 244, 125, 124, 110, 105, 93, 94, 107, 111, 117, 119, 121, 131, 132, 145, 144, 154, 205, 187, 195, 207, 208, 197, 196, 203, 209, 229, 132, 128, 114, 109, 111, 114, 123, 122, 121, 120, 126, 132, 136, 137, 138, 171, 167, 176, 193, 194, 203, 202, 214, 208, 225, 232, 127, 121, 115, 130, 119, 120, 136, 131, 130, 139, 142, 149, 138, 176, 139, 142, 158, 163, 217, 207, 209, 225, 238, 233, 234, 238, 148, 138, 150, 136, 164, 158, 153, 140, 144, 140, 153, 154, 168, 164, 151, 150, 198, 182, 184, 193, 215, 231, 224, 232, 210, 239, 174, 169, 159, 171, 178, 185, 186, 148, 147, 148, 149, 165, 167, 165, 161, 202, 205, 206, 187, 188, 197, 198, 202, 207, 209, 228, 191, 172, 176, 181, 192, 186, 172, 156, 161, 153, 154, 160, 161, 172, 187, 196, 202, 215, 212, 202, 219, 206, 221, 229, 240, 244, 198, 203, 191, 192, 198, 203, 204, 177, 176, 184, 185, 180, 179, 202, 188, 189, 201, 203, 214, 229, 228, 226, 222, 225, 232, 238, 208, 217, 231, 214, 213, 184, 183, 191, 190, 196, 193, 194, 216, 216, 197, 198, 201, 255, 250, 245, 234, 243, 240, 241, 252];
Upper_Bound = [0, 9, 10, 29, 36, 45, 46, 47, 61, 79, 90, 271, 255, 263, 255, 258, 265, 230, 208, 203, 202, 205, 207, 216, 227, 41, 28, 19, 36, 48, 67, 73, 74, 81, 82, 93, 250, 242, 235, 245, 246, 266, 188, 200, 210, 198, 185, 200, 209, 216, 218, 30, 29, 32, 41, 58, 61, 84, 81, 85, 86, 114, 231, 227, 216, 207, 213, 188, 175, 174, 179, 183, 184, 196, 202, 226, 229, 44, 136, 46, 84, 70, 80, 83, 102, 96, 104, 113, 129, 130, 142, 206, 205, 185, 164, 167, 173, 174, 185, 186, 196, 213, 220, 130, 117, 111, 100, 86, 81, 106, 107, 112, 119, 127, 135, 141, 142, 143, 145, 162, 163, 196, 188, 203, 189, 191, 197, 198, 244, 125, 124, 110, 105, 93, 94, 107, 111, 117, 119, 121, 131, 132, 145, 144, 154, 205, 187, 195, 207, 208, 197, 196, 203, 209, 229, 132, 128, 114, 109, 111, 114, 123, 122, 121, 120, 126, 132, 136, 137, 138, 171, 167, 176, 193, 194, 203, 202, 214, 208, 225, 232, 127, 121, 115, 130, 119, 120, 136, 131, 130, 139, 142, 149, 138, 176, 139, 142, 158, 163, 217, 207, 209, 225, 238, 233, 234, 238, 148, 138, 150, 136, 164, 158, 153, 140, 144, 140, 153, 154, 168, 164, 151, 150, 198, 182, 184, 193, 215, 231, 224, 232, 210, 239, 174, 169, 159, 171, 178, 185, 186, 148, 147, 148, 149, 165, 167, 165, 161, 202, 205, 206, 187, 188, 197, 198, 202, 207, 209, 228, 191, 172, 176, 181, 192, 186, 172, 156, 161, 153, 154, 160, 161, 172, 187, 196, 202, 215, 212, 202, 219, 206, 221, 229, 240, 244, 198, 203, 191, 192, 198, 203, 204, 177, 176, 184, 185, 180, 179, 202, 188, 189, 201, 203, 214, 229, 228, 226, 222, 225, 232, 238, 208, 217, 231, 214, 213, 184, 183, 191, 190, 196, 193, 194, 216, 216, 197, 198, 201, 255, 250, 245, 234, 243, 240, 241, 252];
Start = 1;
End = 336;
Time = 252;
